c uprop, v00.0, 
c reading from data/prog308.c.cnf
c done reading: 0.002183
p cnf 100 385
-48 -63 0
48 63 0
-52 -55 0
52 55 0
-56 -59 0
56 59 0
-50 -60 0
50 60 0
-58 -64 0
58 64 0
-66 -69 0
66 69 0
-48 71 0
48 -71 0
45 -48 -52 0
-45 48 52 0
-45 52 0
-45 48 0
-43 -45 52 0
-43 -45 48 0
-43 -45 0
43 45 -52 0
43 45 -48 0
-43 48 52 0
41 -52 -56 0
41 -45 -56 0
41 -45 -52 0
-41 52 56 0
-41 45 56 0
-41 45 52 0
-39 -41 56 0
-39 -41 52 0
-39 -41 45 0
39 41 -56 0
39 41 -52 0
39 41 -45 0
39 -45 -52 -56 0
-39 45 52 56 0
37 -56 -60 0
37 -41 -60 0
37 -41 -56 0
-37 56 60 0
-37 41 60 0
-37 41 56 0
-35 -37 60 0
-35 -37 56 0
-35 -37 41 0
35 37 -60 0
35 37 -56 0
35 37 -41 0
35 -41 -56 -60 0
-35 41 56 60 0
34 -60 -64 0
34 -37 -64 0
34 -37 -60 0
-34 60 64 0
-34 37 64 0
-34 37 60 0
-33 -34 64 0
-33 -34 60 0
-33 -34 37 0
33 34 -64 0
33 34 -60 0
33 34 -37 0
33 -37 -60 -64 0
-33 37 60 64 0
32 -64 -69 0
32 -34 -69 0
32 -34 -64 0
-32 64 69 0
-32 34 69 0
-32 34 64 0
-31 -32 69 0
-31 -32 64 0
-31 -32 34 0
31 32 -69 0
31 32 -64 0
31 32 -34 0
31 -34 -64 -69 0
-31 34 64 69 0
-47 69 0
32 -47 0
-32 47 -69 0
-32 -49 -69 0
32 -49 69 0
32 49 -69 0
-32 49 69 0
35 -53 0
-35 53 0
-35 -57 0
35 57 0
-33 -53 61 0
33 -61 0
33 53 -61 0
53 -61 0
33 -61 -65 0
-61 -65 0
53 -61 -65 0
-33 61 65 0
-53 61 65 0
33 53 -65 0
-31 -48 70 0
-31 -61 70 0
-48 -61 70 0
31 48 -70 0
31 61 -70 0
48 61 -70 0
31 -70 -73 0
48 -70 -73 0
61 -70 -73 0
-31 70 73 0
-48 70 73 0
-61 70 73 0
-31 -48 -61 73 0
31 48 61 -73 0
-49 -52 76 0
-49 -70 76 0
-52 -70 76 0
49 52 -76 0
49 70 -76 0
52 70 -76 0
-49 76 0
-52 76 0
-70 76 0
-49 -52 -70 0
-47 -56 79 0
-47 -76 79 0
-56 -76 79 0
47 56 -79 0
47 76 -79 0
56 76 -79 0
-47 79 0
-56 79 0
-76 79 0
-47 -56 -76 0
60 -82 0
79 -82 0
-60 -79 82 0
-60 79 0
60 -79 0
64 -85 0
82 -85 0
-64 -82 85 0
-64 82 0
64 -82 0
-69 -85 0
-69 85 0
69 -85 0
-71 -86 0
71 86 0
-43 -87 0
43 87 0
-39 -88 0
39 88 0
-57 -89 0
57 89 0
-65 -90 0
65 90 0
-73 -91 0
73 91 0
-67 -75 0
-67 -78 0
67 75 78 0
75 78 -92 0
-75 -78 -92 0
-75 78 92 0
75 -78 92 0
67 -93 0
-93 -95 0
-67 93 95 0
-67 95 -96 0
67 -95 -96 0
67 95 96 0
-67 -95 96 0
-72 93 0
-72 -81 0
72 81 -93 0
-46 81 -93 0
-46 -81 93 0
46 81 93 0
46 -81 -93 0
-44 72 0
-44 -98 0
44 -72 98 0
-42 -72 98 0
-42 72 -98 0
42 72 98 0
42 -72 -98 0
-40 44 0
-40 -84 0
40 -44 84 0
-38 -44 84 0
-38 44 -84 0
38 44 84 0
38 -44 -84 0
-36 40 0
-36 -100 0
36 -40 100 0
-30 -40 100 0
-30 40 -100 0
30 40 100 0
30 -40 -100 0
-29 36 0
-28 -29 0
28 29 -36 0
-26 28 -36 0
-26 -28 36 0
26 28 36 0
26 -28 -36 0
-25 81 0
-25 75 0
25 -75 -81 0
-24 -75 -81 0
-24 75 81 0
24 75 -81 0
24 -75 81 0
23 -78 -98 0
23 -25 -98 0
23 -25 -78 0
-23 78 98 0
-23 25 98 0
-23 25 78 0
-22 -23 98 0
-22 -23 78 0
-22 -23 25 0
22 23 -98 0
22 23 -78 0
22 23 -25 0
22 -25 -78 -98 0
-22 25 78 98 0
21 -84 -95 0
21 -23 -84 0
21 -23 -95 0
-21 84 95 0
-21 23 84 0
-21 23 95 0
-20 -21 84 0
-20 -21 95 0
-20 -21 23 0
20 21 -84 0
20 21 -95 0
20 21 -23 0
20 -23 -84 -95 0
-20 23 84 95 0
19 -81 -100 0
19 -21 -100 0
19 -21 -81 0
-19 81 100 0
-19 21 100 0
-19 21 81 0
19 -100 0
19 -81 0
19 -21 0
-21 -81 -100 0
18 -28 -98 0
18 -19 -28 0
18 -19 -98 0
-18 28 98 0
-18 19 28 0
-18 19 98 0
18 -28 0
18 -98 0
18 -19 0
-19 -28 -98 0
-17 84 0
-17 18 0
17 -18 -84 0
18 -84 0
-18 84 0
-51 100 0
17 -51 0
-17 51 -100 0
17 -100 0
-17 100 0
-28 -51 0
-28 51 0
28 -51 0
-68 -75 0
-68 -78 0
68 75 78 0
-74 75 78 0
-74 -75 -78 0
74 -75 78 0
74 75 -78 0
68 -77 0
-77 -95 0
-68 77 95 0
-68 -94 95 0
68 -94 -95 0
68 94 95 0
-68 94 -95 0
77 -80 0
-24 -80 0
24 -77 80 0
24 -77 -97 0
-24 77 -97 0
24 77 97 0
-24 -77 97 0
80 -83 0
-22 -83 0
22 -80 83 0
22 -80 -99 0
-22 80 -99 0
22 80 99 0
-22 -80 99 0
-27 83 0
-20 -27 0
20 27 -83 0
-16 20 -83 0
-16 -20 83 0
16 20 83 0
16 -20 -83 0
-15 27 0
15 -27 0
-14 -27 0
14 27 0
-13 15 0
13 -15 0
-12 -15 0
12 15 0
-11 13 0
11 -13 0
-10 -13 0
10 13 0
-9 11 0
9 -11 0
-8 -11 0
8 11 0
-7 9 0
7 -9 0
-6 -9 0
6 9 0
-5 7 0
5 -7 0
-4 -7 0
4 7 0
-3 71 0
-3 75 0
3 -71 -75 0
-71 -75 0
71 75 0
2 -43 -78 0
2 -3 -43 0
2 -3 -78 0
-2 43 78 0
-2 3 43 0
-2 3 78 0
2 -43 0
2 -78 0
2 -3 0
-3 -43 -78 0
1 -39 -95 0
1 -2 -39 0
1 -2 -95 0
-1 39 95 0
-1 2 39 0
-1 2 95 0
-1 39 0
-1 95 0
-1 2 0
2 39 95 0
-24 -57 62 0
-1 -57 62 0
-1 -24 62 0
24 57 -62 0
1 57 -62 0
1 24 -62 0
-57 62 0
-24 62 0
-1 62 0
-1 -24 -57 0
-22 54 -65 0
54 -62 -65 0
-22 54 -62 0
22 -54 65 0
-54 62 65 0
22 -54 62 0
-54 65 0
22 -54 0
-54 62 0
22 62 65 0
-20 -73 0
-54 -73 0
-20 -54 0
20 54 73 0
